p cnf 22 53
a 10 11 0
e 1 2 3 4 5 6 7 8 9 12 13 14 15 16 17 18 19 20 21 22 0
3 1 0
3 2 0
-1 -2 -3 0
6 -4 0
6 5 0
4 -5 -6 0
-10 -8 0
-10 -9 0
8 9 10 0
12 10 0
12 11 0
-10 -11 -12 0
13 -7 0
13 12 0
7 -12 -13 0
14 -6 0
14 -13 0
6 13 -14 0
-15 9 0
-15 -11 0
-9 11 15 0
15 1 -16 0
-15 -1 -16 0
15 -1 16 0
-15 1 16 0
14 -16 -17 0
-14 16 -17 0
14 16 17 0
-14 -16 17 0
18 -4 0
18 5 0
4 -5 -18 0
-8 4 -19 0
8 -4 -19 0
-8 -4 19 0
8 4 19 0
18 -19 -20 0
-18 19 -20 0
18 19 20 0
-18 -19 20 0
21 17 0
21 -20 0
-17 20 -21 0
-3 21 -22 0
3 -21 -22 0
-3 -21 22 0
3 21 22 0
-1 -13 15 8 0
-20 22 -21 -19 -14 -2 0
10 7 -5 9 11 0
7 13 9 -21 15 3 0
-19 -22 4 0
22 0
